(set-info :smt-lib-version 2.6)
(set-logic UFNIRA)
(set-info :source |
Generated by: Geoff Sutcliffe
Generated on: 2026-03-11
Generator: TPTPWorld
Application: Benchmarking automated theorem provers
Time limit: 120.0

These benchmarks are translations from the TPTP Library (Thousands of
Problems for Theorem Provers), see http://www.cs.miami.edu/~tptp/

The TPTP is maintained by Geoff Sutcliffe, and he contributed this
selection of benchmarks to SMT-LIB.  They were exported from the
v9.2.1 realease of TPTP.
|)
(set-info :category "industrial")
(set-info :status "unknown")
; SZS status Success
(declare-sort $$unsorted 0)
(declare-sort tptp.uni 0)
(declare-sort tptp.ty 0)
(declare-fun tptp.sort1 (tptp.ty tptp.uni) Bool)
(declare-fun tptp.witness1 (tptp.ty) tptp.uni)
(assert (forall ((A tptp.ty)) (tptp.sort1 A (tptp.witness1 A))))
(declare-fun tptp.int () tptp.ty)
(declare-fun tptp.real () tptp.ty)
(declare-sort tptp.bool1 0)
(declare-fun tptp.bool () tptp.ty)
(declare-fun tptp.true1 () tptp.bool1)
(declare-fun tptp.false1 () tptp.bool1)
(declare-fun tptp.match_bool1 (tptp.ty tptp.bool1 tptp.uni tptp.uni) tptp.uni)
(assert (forall ((A tptp.ty) (X tptp.bool1) (X1 tptp.uni) (X2 tptp.uni)) (tptp.sort1 A (tptp.match_bool1 A X X1 X2))))
(assert (forall ((A tptp.ty) (Z tptp.uni) (Z1 tptp.uni)) (=> (tptp.sort1 A Z) (= (tptp.match_bool1 A tptp.true1 Z Z1) Z))))
(assert (forall ((A tptp.ty) (Z tptp.uni) (Z1 tptp.uni)) (=> (tptp.sort1 A Z1) (= (tptp.match_bool1 A tptp.false1 Z Z1) Z1))))
(assert (not (= tptp.true1 tptp.false1)))
(assert (forall ((U tptp.bool1)) (or (= U tptp.true1) (= U tptp.false1))))
(declare-sort tptp.tuple02 0)
(declare-fun tptp.tuple0 () tptp.ty)
(declare-fun tptp.tuple03 () tptp.tuple02)
(assert (forall ((U tptp.tuple02)) (= U tptp.tuple03)))
(declare-fun tptp.qtmark () tptp.ty)
(assert (forall ((X Int) (Y Int) (Z Int)) (=> (<= X Y) (=> (<= 0 Z) (<= (* X Z) (* Y Z))))))
(declare-fun tptp.ref (tptp.ty) tptp.ty)
(declare-fun tptp.mk_ref (tptp.ty tptp.uni) tptp.uni)
(assert (forall ((A tptp.ty) (X tptp.uni)) (tptp.sort1 (tptp.ref A) (tptp.mk_ref A X))))
(declare-fun tptp.contents (tptp.ty tptp.uni) tptp.uni)
(assert (forall ((A tptp.ty) (X tptp.uni)) (tptp.sort1 A (tptp.contents A X))))
(assert (forall ((A tptp.ty) (U tptp.uni)) (=> (tptp.sort1 A U) (= (tptp.contents A (tptp.mk_ref A U)) U))))
(assert (forall ((A tptp.ty) (U tptp.uni)) (=> (tptp.sort1 (tptp.ref A) U) (= U (tptp.mk_ref A (tptp.contents A U))))))
(declare-fun tptp.abs1 (Int) Int)
(assert (forall ((X Int)) (let ((_let_1 (tptp.abs1 X))) (let ((_let_2 (<= 0 X))) (and (=> _let_2 (= _let_1 X)) (=> (not _let_2) (= _let_1 (- X))))))))
(assert (forall ((X Int) (Y Int)) (= (<= (tptp.abs1 X) Y) (and (<= (- Y) X) (<= X Y)))))
(assert (forall ((X Int)) (<= 0 (tptp.abs1 X))))
(assert (forall ((X Int) (Y Int) (Z Int)) (let ((_let_1 (to_real X))) (let ((_let_2 (/ (to_real Z) _let_1))) (let ((_let_3 (>= _let_1 0.0))) (let ((_let_4 (/ (to_real (+ (* X Y) Z)) _let_1))) (=> (< 0 X) (= (ite _let_3 (to_int _let_4) (- (to_int (- _let_4)))) (+ Y (ite _let_3 (to_int _let_2) (- (to_int (- _let_2)))))))))))))
(assert (forall ((X Int) (Y Int) (Z Int)) (let ((_let_1 (to_real X))) (let ((_let_2 (to_real Z))) (let ((_let_3 (/ _let_2 _let_1))) (let ((_let_4 (>= _let_1 0.0))) (let ((_let_5 (to_real (+ (* X Y) Z)))) (let ((_let_6 (/ _let_5 _let_1))) (=> (< 0 X) (= (to_int (- _let_5 (* (ite _let_4 (to_int _let_6) (- (to_int (- _let_6)))) _let_1))) (to_int (- _let_2 (* (ite _let_4 (to_int _let_3) (- (to_int (- _let_3)))) _let_1)))))))))))))
(declare-fun tptp.power1 (Int Int) Int)
(assert (forall ((X Int)) (= (tptp.power1 X 0) 1)))
(assert (forall ((X Int) (N Int)) (=> (<= 0 N) (= (tptp.power1 X (+ N 1)) (* X (tptp.power1 X N))))))
(assert (forall ((X Int) (N Int)) (=> (< 0 N) (= (tptp.power1 X N) (* X (tptp.power1 X (- N 1)))))))
(assert (forall ((X Int)) (= (tptp.power1 X 1) X)))
(assert (forall ((X Int) (N Int) (M Int)) (=> (<= 0 N) (=> (<= 0 M) (= (tptp.power1 X (+ N M)) (* (tptp.power1 X N) (tptp.power1 X M)))))))
(assert (forall ((X Int) (N Int) (M Int)) (=> (<= 0 N) (=> (<= 0 M) (= (tptp.power1 X (* N M)) (tptp.power1 (tptp.power1 X N) M))))))
(assert (forall ((X Int) (Y Int) (N Int)) (=> (<= 0 N) (= (tptp.power1 (* X Y) N) (* (tptp.power1 X N) (tptp.power1 Y N))))))
(declare-fun tptp.sum_digits1 (Int) Int)
(assert (forall ((N Int)) (let ((_let_1 (to_real 10))) (let ((_let_2 (to_real N))) (let ((_let_3 (/ _let_2 _let_1))) (let ((_let_4 (ite (>= _let_1 0.0) (to_int _let_3) (- (to_int (- _let_3)))))) (let ((_let_5 (tptp.sum_digits1 N))) (let ((_let_6 (<= N 0))) (and (=> _let_6 (= _let_5 0)) (=> (not _let_6) (= _let_5 (+ (tptp.sum_digits1 _let_4) (to_int (- _let_2 (* _let_4 _let_1)))))))))))))))
(declare-fun tptp.tuple3 (tptp.ty tptp.ty tptp.ty) tptp.ty)
(declare-fun tptp.tuple31 (tptp.ty tptp.ty tptp.ty tptp.uni tptp.uni tptp.uni) tptp.uni)
(assert (forall ((A tptp.ty) (A1 tptp.ty) (A2 tptp.ty) (X tptp.uni) (X1 tptp.uni) (X2 tptp.uni)) (tptp.sort1 (tptp.tuple3 A2 A1 A) (tptp.tuple31 A2 A1 A X X1 X2))))
(declare-fun tptp.tuple3_proj_11 (tptp.ty tptp.ty tptp.ty tptp.uni) tptp.uni)
(assert (forall ((A tptp.ty) (A1 tptp.ty) (A2 tptp.ty) (X tptp.uni)) (tptp.sort1 A2 (tptp.tuple3_proj_11 A2 A1 A X))))
(assert (forall ((A tptp.ty) (A1 tptp.ty) (A2 tptp.ty) (U tptp.uni) (U1 tptp.uni) (U2 tptp.uni)) (=> (tptp.sort1 A2 U) (= (tptp.tuple3_proj_11 A2 A1 A (tptp.tuple31 A2 A1 A U U1 U2)) U))))
(declare-fun tptp.tuple3_proj_21 (tptp.ty tptp.ty tptp.ty tptp.uni) tptp.uni)
(assert (forall ((A tptp.ty) (A1 tptp.ty) (A2 tptp.ty) (X tptp.uni)) (tptp.sort1 A1 (tptp.tuple3_proj_21 A2 A1 A X))))
(assert (forall ((A tptp.ty) (A1 tptp.ty) (A2 tptp.ty) (U tptp.uni) (U1 tptp.uni) (U2 tptp.uni)) (=> (tptp.sort1 A1 U1) (= (tptp.tuple3_proj_21 A2 A1 A (tptp.tuple31 A2 A1 A U U1 U2)) U1))))
(declare-fun tptp.tuple3_proj_31 (tptp.ty tptp.ty tptp.ty tptp.uni) tptp.uni)
(assert (forall ((A tptp.ty) (A1 tptp.ty) (A2 tptp.ty) (X tptp.uni)) (tptp.sort1 A (tptp.tuple3_proj_31 A2 A1 A X))))
(assert (forall ((A tptp.ty) (A1 tptp.ty) (A2 tptp.ty) (U tptp.uni) (U1 tptp.uni) (U2 tptp.uni)) (=> (tptp.sort1 A U2) (= (tptp.tuple3_proj_31 A2 A1 A (tptp.tuple31 A2 A1 A U U1 U2)) U2))))
(assert (forall ((A tptp.ty) (A1 tptp.ty) (A2 tptp.ty) (U tptp.uni)) (=> (tptp.sort1 (tptp.tuple3 A2 A1 A) U) (= U (tptp.tuple31 A2 A1 A (tptp.tuple3_proj_11 A2 A1 A U) (tptp.tuple3_proj_21 A2 A1 A U) (tptp.tuple3_proj_31 A2 A1 A U))))))
(declare-sort tptp.lpintcm_intcm_intrp 0)
(declare-fun tptp.p1 (tptp.lpintcm_intcm_intrp Int) Bool)
(declare-fun tptp.t2tb (tptp.lpintcm_intcm_intrp) tptp.uni)
(assert (forall ((X tptp.lpintcm_intcm_intrp)) (tptp.sort1 (tptp.tuple3 tptp.int tptp.int tptp.int) (tptp.t2tb X))))
(declare-fun tptp.tb2t (tptp.uni) tptp.lpintcm_intcm_intrp)
(assert (forall ((I tptp.lpintcm_intcm_intrp)) (= (tptp.tb2t (tptp.t2tb I)) I)))
(assert (forall ((J tptp.uni)) (= (tptp.t2tb (tptp.tb2t J)) J)))
(declare-fun tptp.t2tb1 (Int) tptp.uni)
(assert (forall ((X Int)) (tptp.sort1 tptp.int (tptp.t2tb1 X))))
(declare-fun tptp.tb2t1 (tptp.uni) Int)
(assert (forall ((I Int)) (= (tptp.tb2t1 (tptp.t2tb1 I)) I)))
(assert (forall ((J tptp.uni)) (= (tptp.t2tb1 (tptp.tb2t1 J)) J)))
(assert (forall ((N Int) (A Int) (B Int) (C Int)) (let ((_let_1 (to_real 10))) (let ((_let_2 (to_real N))) (let ((_let_3 (/ _let_2 _let_1))) (let ((_let_4 (to_int (- _let_2 (* (ite (>= _let_1 0.0) (to_int _let_3) (- (to_int (- _let_3)))) _let_1))))) (= (tptp.p1 (tptp.tb2t (tptp.tuple31 tptp.int tptp.int tptp.int (tptp.t2tb1 A) (tptp.t2tb1 B) (tptp.t2tb1 C))) N) (and (<= 0 _let_4) (< _let_4 C) (= (tptp.sum_digits1 N) (+ (tptp.sum_digits1 (+ (* 137 N) A)) B))))))))))
(declare-fun tptp.num_of1 (tptp.lpintcm_intcm_intrp Int Int) Int)
(assert (forall ((P tptp.lpintcm_intcm_intrp) (A Int) (B Int)) (=> (<= B A) (= (tptp.num_of1 P A B) 0))))
(assert (forall ((P tptp.lpintcm_intcm_intrp) (A Int) (B Int)) (let ((_let_1 (- B 1))) (=> (< A B) (=> (not (tptp.p1 P _let_1)) (= (tptp.num_of1 P A B) (tptp.num_of1 P A _let_1)))))))
(assert (forall ((P tptp.lpintcm_intcm_intrp) (A Int) (B Int)) (let ((_let_1 (- B 1))) (=> (< A B) (=> (tptp.p1 P _let_1) (= (tptp.num_of1 P A B) (+ 1 (tptp.num_of1 P A _let_1))))))))
(assert (forall ((P tptp.lpintcm_intcm_intrp) (A Int) (B Int)) (let ((_let_1 (tptp.num_of1 P A B))) (=> (< A B) (and (<= 0 _let_1) (<= _let_1 (- B A)))))))
(assert (forall ((P tptp.lpintcm_intcm_intrp) (A Int) (B Int) (C Int)) (=> (and (<= A B) (<= B C)) (= (tptp.num_of1 P A C) (+ (tptp.num_of1 P A B) (tptp.num_of1 P B C))))))
(assert (forall ((P tptp.lpintcm_intcm_intrp) (A Int) (B Int)) (=> (< A B) (=> (not (tptp.p1 P A)) (= (tptp.num_of1 P A B) (tptp.num_of1 P (+ A 1) B))))))
(assert (forall ((P tptp.lpintcm_intcm_intrp) (A Int) (B Int)) (=> (< A B) (=> (tptp.p1 P A) (= (tptp.num_of1 P A B) (+ 1 (tptp.num_of1 P (+ A 1) B)))))))
(assert (forall ((P tptp.lpintcm_intcm_intrp) (A Int) (B Int)) (=> (forall ((N Int)) (=> (and (<= A N) (< N B)) (not (tptp.p1 P N)))) (= (tptp.num_of1 P A B) 0))))
(assert (forall ((P tptp.lpintcm_intcm_intrp) (A Int) (B Int)) (=> (<= A B) (=> (forall ((N Int)) (=> (and (<= A N) (< N B)) (tptp.p1 P N))) (= (tptp.num_of1 P A B) (- B A))))))
(assert (forall ((P tptp.lpintcm_intcm_intrp) (I Int) (J Int) (K Int)) (=> (and (<= I J) (<= J K)) (<= (tptp.num_of1 P I J) (tptp.num_of1 P I K)))))
(assert (forall ((P tptp.lpintcm_intcm_intrp) (I Int) (J Int) (K Int) (L Int)) (=> (and (<= I J) (<= J K) (< K L)) (=> (tptp.p1 P K) (< (tptp.num_of1 P I J) (tptp.num_of1 P I L))))))
(assert (forall ((P1 tptp.lpintcm_intcm_intrp) (P2 tptp.lpintcm_intcm_intrp) (A Int) (B Int)) (=> (forall ((J Int)) (=> (and (<= A J) (< J B)) (=> (tptp.p1 P1 J) (tptp.p1 P2 J)))) (<= (tptp.num_of1 P1 A B) (tptp.num_of1 P2 A B)))))
(assert (forall ((P1 tptp.lpintcm_intcm_intrp) (P2 tptp.lpintcm_intcm_intrp) (A Int) (B Int) (I Int)) (=> (and (<= A I) (< I B)) (=> (forall ((J Int)) (=> (and (<= A J) (< J B)) (=> (tptp.p1 P1 J) (tptp.p1 P2 J)))) (=> (not (tptp.p1 P1 I)) (=> (tptp.p1 P2 I) (< (tptp.num_of1 P1 A B) (tptp.num_of1 P2 A B))))))))
(declare-fun tptp.solution1 (Int Int Int) Int)
(assert (forall ((A Int) (B Int) (M Int)) (= (tptp.solution1 A B M) (tptp.num_of1 (tptp.tb2t (tptp.tuple31 tptp.int tptp.int tptp.int (tptp.t2tb1 A) (tptp.t2tb1 B) (tptp.t2tb1 10))) 0 (tptp.power1 10 M)))))
(declare-fun tptp.num_of_modc1 (tptp.lpintcm_intcm_intrp Int Int) Int)
(assert (forall ((X Int) (Y Int) (A Int) (B Int) (C Int)) (let ((_let_1 (tptp.t2tb1 B))) (let ((_let_2 (tptp.t2tb1 A))) (let ((_let_3 (tptp.tb2t (tptp.tuple31 tptp.int tptp.int tptp.int _let_2 _let_1 (tptp.t2tb1 C))))) (= (tptp.num_of_modc1 _let_3 X Y) (- (tptp.num_of1 (tptp.tb2t (tptp.tuple31 tptp.int tptp.int tptp.int _let_2 _let_1 (tptp.t2tb1 (+ C 1)))) X Y) (tptp.num_of1 _let_3 X Y))))))))
(assert (forall ((A Int) (B Int)) (=> (<= 0 A) (=> (= (+ (tptp.sum_digits1 A) B) 0) (tptp.p1 (tptp.tb2t (tptp.tuple31 tptp.int tptp.int tptp.int (tptp.t2tb1 A) (tptp.t2tb1 B) (tptp.t2tb1 10))) 0)))))
(assert (forall ((A Int) (B Int) (X Int) (Y Int)) (= (tptp.num_of1 (tptp.tb2t (tptp.tuple31 tptp.int tptp.int tptp.int (tptp.t2tb1 A) (tptp.t2tb1 B) (tptp.t2tb1 0))) X Y) 0)))
(assert (forall ((A Int) (B Int) (C Int) (M Int)) (let ((_let_1 (to_real 10))) (let ((_let_2 (to_real (+ (* 137 C) A)))) (let ((_let_3 (/ _let_2 _let_1))) (let ((_let_4 (ite (>= _let_1 0.0) (to_int _let_3) (- (to_int (- _let_3)))))) (=> (<= 0 A) (=> (and (<= 0 C) (< C 10)) (=> (< 0 M) (= (tptp.solution1 _let_4 (- (+ (to_int (- _let_2 (* _let_4 _let_1))) B) C) (- M 1)) (tptp.num_of_modc1 (tptp.tb2t (tptp.tuple31 tptp.int tptp.int tptp.int (tptp.t2tb1 A) (tptp.t2tb1 B) (tptp.t2tb1 C))) 0 (tptp.power1 10 M))))))))))))
(declare-fun tptp.div2 (Int Int) Int)
(declare-fun tptp.mod2 (Int Int) Int)
(assert (forall ((X Int) (Y Int)) (=> (not (= Y 0)) (= X (+ (* Y (tptp.div2 X Y)) (tptp.mod2 X Y))))))
(assert (forall ((X Int) (Y Int)) (let ((_let_1 (tptp.div2 X Y))) (=> (and (<= 0 X) (< 0 Y)) (and (<= 0 _let_1) (<= _let_1 X))))))
(assert (forall ((X Int) (Y Int)) (let ((_let_1 (tptp.abs1 Y))) (let ((_let_2 (tptp.mod2 X Y))) (=> (not (= Y 0)) (and (< (- _let_1) _let_2) (< _let_2 _let_1)))))))
(assert (forall ((X Int) (Y Int)) (=> (and (<= 0 X) (< 0 Y)) (<= 0 (tptp.div2 X Y)))))
(assert (forall ((X Int) (Y Int)) (=> (and (<= X 0) (< 0 Y)) (<= (tptp.div2 X Y) 0))))
(assert (forall ((X Int) (Y Int)) (=> (and (<= 0 X) (not (= Y 0))) (<= 0 (tptp.mod2 X Y)))))
(assert (forall ((X Int) (Y Int)) (=> (and (<= X 0) (not (= Y 0))) (<= (tptp.mod2 X Y) 0))))
(assert (forall ((X Int) (Y Int)) (=> (not (= Y 0)) (<= (tptp.abs1 (* (tptp.div2 X Y) Y)) (tptp.abs1 X)))))
(assert (forall ((X Int)) (= (tptp.div2 X 1) X)))
(assert (forall ((X Int)) (= (tptp.mod2 X 1) 0)))
(assert (forall ((X Int) (Y Int)) (=> (and (<= 0 X) (< X Y)) (= (tptp.div2 X Y) 0))))
(assert (forall ((X Int) (Y Int)) (=> (and (<= 0 X) (< X Y)) (= (tptp.mod2 X Y) X))))
(assert (forall ((X Int) (Y Int) (Z Int)) (=> (and (< 0 X) (<= 0 Y) (<= 0 Z)) (= (tptp.div2 (+ (* X Y) Z) X) (+ Y (tptp.div2 Z X))))))
(assert (forall ((X Int) (Y Int) (Z Int)) (=> (and (< 0 X) (<= 0 Y) (<= 0 Z)) (= (tptp.mod2 (+ (* X Y) Z) X) (tptp.mod2 Z X)))))
(assert (not (forall ((M Int) (A Int) (B Int)) (=> (and (<= 0 M) (<= 0 A)) (=> (not (= M 0)) (=> (<= 0 9) (forall ((Sum Int) (C Int)) (=> (and (<= 0 C) (<= C 9)) (=> (= Sum (tptp.num_of1 (tptp.tb2t (tptp.tuple31 tptp.int tptp.int tptp.int (tptp.t2tb1 A) (tptp.t2tb1 B) (tptp.t2tb1 C))) 0 (tptp.power1 10 M))) (=> (and (<= 0 (- M 1)) (<= 0 (tptp.div2 (+ (* 137 C) A) 10))) (forall ((Sum1 Int)) (let ((_let_1 (to_real 10))) (let ((_let_2 (+ (* 137 C) A))) (let ((_let_3 (to_real _let_2))) (let ((_let_4 (/ _let_3 _let_1))) (let ((_let_5 (ite (>= _let_1 0.0) (to_int _let_4) (- (to_int (- _let_4)))))) (let ((_let_6 (tptp.mod2 _let_2 10))) (let ((_let_7 (tptp.div2 _let_2 10))) (=> (= Sum1 (+ Sum (tptp.solution1 _let_7 (- (+ _let_6 B) C) (- M 1)))) (=> (= _let_7 _let_5) (=> (= _let_6 (to_int (- _let_3 (* _let_5 _let_1)))) (= (- Sum1 Sum) (tptp.num_of_modc1 (tptp.tb2t (tptp.tuple31 tptp.int tptp.int tptp.int (tptp.t2tb1 A) (tptp.t2tb1 B) (tptp.t2tb1 C))) 0 (tptp.power1 10 M))))))))))))))))))))))))
(check-sat)
